; benchmark generated from python API
(set-info :status unknown)
(declare-datatypes ((RealState 0)) (((RMk1 (rval1 Real)) (RMk2 (rval2 Real)))))
 (assert
 (exists ((|v11:0_st| RealState) (val!6564 Real) )(exists ((|v10:1_st| RealState) (val!6565 Real) )(exists ((|v9:2_st| RealState) (val!6566 Real) )(exists ((|v8:3_st| RealState) (val!6567 Real) )(forall ((|v7:4| Real) )(forall ((|v6:5| Real) )(forall ((|v5:6| Real) )(forall ((|v4:7| Real) )(exists ((|v3:8_st| RealState) (val!6568 Real) )(exists ((|v2:9_st| RealState) (val!6569 Real) )(exists ((|v1:10_st| RealState) (val!6570 Real) )(exists ((|v0:11_st| RealState) (val!6571 Real) )(let ((?x1633 (- 7.0)))
 (let ((?x721 (rval2 |v0:11_st|)))
 (let ((?x1013 (* 19.0 ?x721)))
 (let ((?x2821 (+ (+ (* 11.0 |v5:6|) (* (- 15.0) (rval2 |v2:9_st|))) (* 5.0 (rval2 |v9:2_st|)))))
 (let ((?x3021 (* 3.0 |v4:7|)))
 (let ((?x1863 (+ (+ (* (- 8.0) |v6:5|) (* 16.0 (rval2 |v8:3_st|))) (* (- 12.0) |v4:7|))))
 (let ((?x1774 (- 11.0)))
 (let ((?x2250 (rval2 |v10:1_st|)))
 (let ((?x2614 (* 5.0 ?x2250)))
 (let ((?x3338 (+ (+ (* (- 9.0) (rval2 |v9:2_st|)) (* 20.0 (rval2 |v3:8_st|))) (* (- 4.0) (rval2 |v8:3_st|)))))
 (let ((?x1102 (+ (+ (* (- 5.0) (rval2 |v1:10_st|)) (* 0.0 |v4:7|)) (* (- 6.0) (rval2 |v11:0_st|)))))
 (let (($x516 (and (<= (+ ?x1102 (* (- 15.0) (rval2 |v3:8_st|))) 17.0) (<= (+ ?x3338 ?x2614) ?x1774))))
 (let ((?x2072 (- 14.0)))
 (let ((?x599 (- 6.0)))
 (let ((?x2769 (* ?x599 |v7:4|)))
 (let ((?x3163 (+ (+ (+ (* (- 17.0) (rval2 |v3:8_st|)) (* 2.0 (rval2 |v2:9_st|))) ?x2769) (* ?x1774 (rval2 |v11:0_st|)))))
 (let ((?x496 (- 19.0)))
 (let ((?x2397 (rval2 |v3:8_st|)))
 (let ((?x1319 (- 13.0)))
 (let ((?x2983 (* ?x1319 ?x2397)))
 (let ((?x1137 (+ (+ (+ (* 15.0 ?x721) (* (- 12.0) ?x2397)) (* 4.0 ?x721)) ?x2983)))
 (let ((?x239 (* 18.0 |v4:7|)))
 (let ((?x2341 (+ (+ (+ (* (- 5.0) (rval2 |v1:10_st|)) (* 9.0 ?x2250)) (* 16.0 |v6:5|)) ?x239)))
 (let ((?x2613 (* 3.0 |v7:4|)))
 (let ((?x3242 (+ (+ (+ (* 15.0 ?x2250) (* (- 8.0) |v6:5|)) (* 9.0 (rval2 |v8:3_st|))) ?x2613)))
 (let (($x648 (and (and (<= ?x3242 0.0) (<= ?x2341 6.0)) (and (<= ?x1137 ?x496) (<= ?x3163 ?x2072)))))
 (let (($x1057 (and $x648 (and $x516 (and (<= (+ ?x1863 ?x3021) 5.0) (<= (+ ?x2821 ?x1013) ?x1633))))))
 (let ((?x2387 (- 1.0)))
 (let ((?x71 (- 9.0)))
 (let ((?x1384 (* ?x71 ?x721)))
 (let ((?x212 (+ (+ (+ (* (- 8.0) (rval2 |v8:3_st|)) (* 11.0 ?x2250)) (* 2.0 ?x2250)) ?x1384)))
 (let ((?x627 (+ (+ (+ (* (- 4.0) |v6:5|) (* ?x2072 |v6:5|)) (* (- 10.0) |v7:4|)) (* 18.0 ?x2250))))
 (let ((?x220 (rval2 |v11:0_st|)))
 (let ((?x1288 (* 7.0 ?x220)))
 (let ((?x517 (+ (+ (+ (* 20.0 |v4:7|) (* 13.0 (rval2 |v8:3_st|))) ?x1288) (* 20.0 (rval2 |v8:3_st|)))))
 (let ((?x1709 (- 16.0)))
 (let ((?x1932 (* ?x1709 ?x721)))
 (let ((?x1472 (+ (+ (+ (* 4.0 (rval2 |v1:10_st|)) (* 9.0 |v6:5|)) (* ?x1633 ?x2250)) ?x1932)))
 (let (($x1570 (and (and (<= ?x1472 11.0) (<= ?x517 11.0)) (and (<= ?x627 ?x496) (<= ?x212 ?x2387)))))
 (let ((?x1415 (- 15.0)))
 (let ((?x273 (rval2 |v2:9_st|)))
 (let ((?x2016 (* ?x2387 ?x273)))
 (let ((?x3440 (+ (+ (+ (* 2.0 ?x721) (* ?x2387 (rval2 |v9:2_st|))) (* 15.0 |v4:7|)) ?x2016)))
 (let ((?x564 (- 8.0)))
 (let ((?x2944 (+ (+ (+ (* ?x1774 |v7:4|) (* 12.0 ?x273)) (* 7.0 |v6:5|)) (* ?x564 ?x220))))
 (let ((?x1406 (+ (+ (+ (* 16.0 ?x721) (* (- 20.0) ?x2397)) (* 14.0 |v4:7|)) (* (- 10.0) (rval2 |v1:10_st|)))))
 (let ((?x1940 (* 6.0 |v6:5|)))
 (let (($x1868 (<= (+ (+ (+ ?x1932 (* (- 12.0) |v6:5|)) (* (- 4.0) |v5:6|)) ?x1940) ?x2387)))
 (let (($x1479 (and (and $x1868 (<= ?x1406 13.0)) (and (<= ?x2944 ?x564) (<= ?x3440 ?x1415)))))
 (let ((?x1589 (+ (+ (+ (* ?x2072 |v7:4|) (* ?x599 ?x2397)) (* (- 20.0) |v4:7|)) (* (- 18.0) ?x220))))
 (let ((?x2348 (- 20.0)))
 (let ((?x3198 (+ (+ (* 14.0 (rval2 |v9:2_st|)) (* ?x2072 |v6:5|)) (* 19.0 (rval2 |v1:10_st|)))))
 (let ((?x1477 (- 5.0)))
 (let ((?x3147 (rval2 |v9:2_st|)))
 (let ((?x1148 (* 16.0 ?x3147)))
 (let ((?x2244 (+ (+ (+ (* 7.0 (rval2 |v8:3_st|)) (* 18.0 ?x220)) (* 7.0 |v6:5|)) ?x1148)))
 (let (($x3239 (<= (+ (+ (+ (* ?x1633 |v7:4|) (* (- 18.0) |v4:7|)) ?x721) (* 6.0 ?x220)) ?x1319)))
 (let (($x1914 (and (and $x3239 (<= ?x2244 ?x1477)) (and (<= (+ ?x3198 (* ?x1415 ?x3147)) ?x2348) (<= ?x1589 19.0)))))
 (let ((?x1732 (+ (+ (+ (* 10.0 ?x721) (* 8.0 ?x273)) (* 18.0 |v6:5|)) (* ?x599 |v4:7|))))
 (let ((?x2551 (* 3.0 ?x721)))
 (let (($x1500 (<= (+ (+ (+ (* (- 3.0) ?x2397) (* 12.0 ?x2397)) (* ?x2072 |v4:7|)) ?x2551) 13.0)))
 (let ((?x730 (+ (+ (+ (* ?x1319 ?x721) (* 11.0 |v7:4|)) (* 16.0 |v4:7|)) (* (- 3.0) ?x2250))))
 (let ((?x240 (* ?x1319 |v4:7|)))
 (let (($x3392 (<= (+ (+ (+ (* ?x564 ?x2250) (* ?x1633 ?x273)) (* (- 17.0) ?x721)) ?x240) ?x2348)))
 (let (($x1476 (and (and (and $x3392 (<= ?x730 ?x71)) (and $x1500 (<= ?x1732 ?x1633))) $x1914)))
 (let ((?x1712 (* 2.0 |v4:7|)))
 (let (($x265 (<= (+ (+ (+ (* ?x1774 |v4:7|) (* 11.0 |v4:7|)) (* 14.0 |v7:4|)) ?x1712) ?x1477)))
 (let ((?x1892 (+ (+ (+ (* (- 10.0) ?x721) (* 0.0 ?x3147)) (* (- 17.0) |v7:4|)) (* ?x1709 ?x3147))))
 (let ((?x3272 (* 15.0 |v4:7|)))
 (let (($x3461 (<= (+ (+ (+ (* 2.0 |v5:6|) (* ?x496 ?x2250)) (* 12.0 ?x2250)) ?x3272) ?x564)))
 (let ((?x1115 (* 9.0 ?x2250)))
 (let ((?x1209 (+ (+ (+ (* 14.0 ?x2250) (* ?x1709 (rval2 |v8:3_st|))) (* 7.0 |v7:4|)) ?x1115)))
 (let ((?x2852 (* ?x71 |v5:6|)))
 (let (($x1979 (<= (+ (+ (+ (* 14.0 |v7:4|) (* 8.0 ?x2250)) (* ?x1633 ?x273)) ?x2852) ?x2348)))
 (let ((?x2978 (* ?x599 ?x2397)))
 (let (($x1251 (<= (+ (+ (+ (* 18.0 ?x2397) (* 8.0 ?x220)) (* ?x599 |v6:5|)) ?x2978) 12.0)))
 (let ((?x336 (+ (+ (+ (* (- 4.0) ?x2250) (* 19.0 |v5:6|)) (* ?x1633 (rval2 |v8:3_st|))) (* (- 17.0) |v6:5|))))
 (let (($x141 (<= (+ (+ (+ (* ?x1477 (rval2 |v1:10_st|)) (* ?x2072 ?x2397)) (* ?x1633 ?x2397)) ?x2551) 14.0)))
 (let (($x2800 (and (or (and $x141 (<= ?x336 7.0)) (and $x1251 $x1979)) (and (or (<= ?x1209 ?x599) $x3461) (and (<= ?x1892 ?x564) $x265)))))
 (let ((?x534 (+ (+ (+ (* (- 18.0) ?x3147) (* ?x496 |v7:4|)) (* ?x2348 |v6:5|)) (* 0.0 (rval2 |v8:3_st|)))))
 (let ((?x259 (* 8.0 |v6:5|)))
 (let ((?x961 (- 2.0)))
 (let ((?x1999 (* ?x961 |v6:5|)))
 (let (($x2506 (<= (+ (+ (+ (* ?x1709 |v5:6|) (* (- 12.0) (rval2 |v1:10_st|))) ?x1999) ?x259) 11.0)))
 (let ((?x1717 (+ (+ (+ (* (- 10.0) |v5:6|) (* 5.0 |v6:5|)) (* 9.0 |v5:6|)) (* ?x71 (rval2 |v1:10_st|)))))
 (let ((?x1314 (+ (+ (+ (* 10.0 (rval2 |v1:10_st|)) (* 15.0 (rval2 |v8:3_st|))) (rval2 |v8:3_st|)) (* ?x1477 ?x721))))
 (let (($x1872 (and (and (<= ?x1314 ?x2072) (<= ?x1717 13.0)) (and $x2506 (<= ?x534 ?x1633)))))
 (let (($x2142 (<= (+ (+ (+ (* 16.0 ?x2397) ?x2983) (* 7.0 ?x2397)) (* ?x2387 |v7:4|)) 20.0)))
 (let ((?x2557 (* 3.0 ?x273)))
 (let ((?x2798 (+ (+ (+ (* ?x599 ?x3147) (* 2.0 |v5:6|)) (* 17.0 (rval2 |v1:10_st|))) ?x2557)))
 (let (($x2464 (<= (+ (+ (+ (* 17.0 |v7:4|) (* 12.0 ?x220)) (* 7.0 |v5:6|)) ?x2852) ?x599)))
 (let ((?x2959 (+ (+ (+ (* (- 18.0) |v4:7|) (* 8.0 ?x2397)) (* 7.0 ?x3147)) (* 13.0 ?x2397))))
 (let (($x3419 (and (or (and (<= ?x2959 9.0) $x2464) (and (<= ?x2798 ?x1633) $x2142)) $x1872)))
 (let ((?x580 (+ (+ (+ (* 3.0 ?x2250) (* (- 4.0) (rval2 |v1:10_st|))) (* ?x496 ?x273)) (* ?x564 (rval2 |v1:10_st|)))))
 (let ((?x1204 (+ (+ (+ (* ?x2348 ?x3147) (* 15.0 ?x2250)) (* ?x1319 (rval2 |v1:10_st|))) (* ?x71 ?x220))))
 (let ((?x1432 (* 20.0 |v6:5|)))
 (let (($x1215 (<= (+ (+ (+ (* 5.0 |v7:4|) (* ?x2072 |v7:4|)) (* ?x2387 ?x721)) ?x1432) 3.0)))
 (let ((?x1123 (+ (+ (+ (* ?x1477 (rval2 |v1:10_st|)) (* ?x2072 |v6:5|)) (* 9.0 ?x721)) (* (- 10.0) (rval2 |v8:3_st|)))))
 (let (($x3441 (and (and (<= ?x1123 0.0) $x1215) (and (<= ?x1204 ?x1319) (<= ?x580 18.0)))))
 (let ((?x1926 (+ (+ (+ (* ?x1774 ?x2397) (* 4.0 ?x220)) (* ?x1774 (rval2 |v1:10_st|))) (* 16.0 (rval2 |v1:10_st|)))))
 (let ((?x2946 (- 12.0)))
 (let ((?x3138 (rval2 |v1:10_st|)))
 (let ((?x684 (* 10.0 ?x3138)))
 (let (($x3465 (<= (+ (+ (+ (* (- 3.0) ?x721) (* 5.0 ?x2397)) (* ?x564 ?x3147)) ?x684) ?x2946)))
 (let ((?x959 (+ (+ (+ ?x2551 (* 10.0 |v7:4|)) (* 8.0 |v5:6|)) (* (- 3.0) (rval2 |v8:3_st|)))))
 (let ((?x3417 (+ (+ (+ (* 19.0 ?x2397) (* 14.0 |v6:5|)) (* 0.0 |v7:4|)) (* 10.0 |v6:5|))))
 (let (($x1020 (or (and (<= ?x3417 1.0) (<= ?x959 ?x1477)) (and $x3465 (<= ?x1926 11.0)))))
 (let (($x1381 (<= (+ (+ (+ ?x3021 (* (- 4.0) ?x220)) (* ?x2387 |v5:6|)) (* 12.0 ?x721)) ?x2387)))
 (let ((?x2556 (+ (+ (+ (* ?x1633 (rval2 |v8:3_st|)) (* ?x1319 (rval2 |v8:3_st|))) (* 11.0 ?x2397)) (* ?x1415 ?x3138))))
 (let ((?x2727 (* 15.0 ?x3147)))
 (let (($x2428 (<= (+ (+ (+ (* 7.0 ?x273) (* ?x961 ?x3138)) (* 6.0 |v5:6|)) ?x2727) 7.0)))
 (let ((?x2246 (* 14.0 |v7:4|)))
 (let ((?x2149 (+ (+ (+ (* ?x2387 (rval2 |v8:3_st|)) (* ?x564 |v4:7|)) (* 11.0 ?x2397)) ?x2246)))
 (let ((?x2572 (- 4.0)))
 (let ((?x825 (* 14.0 |v5:6|)))
 (let (($x1605 (<= (+ (+ (+ (* ?x1709 ?x3138) (* 0.0 ?x2397)) (* 16.0 ?x2397)) ?x825) ?x2572)))
 (let (($x2207 (<= (+ (+ (+ (* 15.0 ?x2397) (* 18.0 |v7:4|)) ?x2397) (* 0.0 |v6:5|)) ?x1774)))
 (let ((?x493 (+ (+ (+ (* 10.0 ?x721) (* 6.0 ?x2250)) ?x1384) (* (- 17.0) ?x3147))))
 (let (($x2894 (<= (+ (+ (+ (* 7.0 |v5:6|) ?x2978) (* 17.0 |v7:4|)) (rval2 |v8:3_st|)) 0.0)))
 (let (($x3303 (and (and (and $x2894 (<= ?x493 17.0)) (and $x2207 $x1605)) (and (and (<= ?x2149 8.0) $x2428) (and (<= ?x2556 20.0) $x1381)))))
 (let ((?x3071 (rval2 |v8:3_st|)))
 (let ((?x2649 (* 9.0 ?x3071)))
 (let (($x81 (<= (+ (+ (+ (* ?x961 ?x2250) (* ?x2348 ?x273)) (* 10.0 |v5:6|)) ?x2649) 2.0)))
 (let ((?x226 (* ?x2348 |v6:5|)))
 (let (($x2560 (<= (+ (+ (+ (* ?x1774 |v4:7|) (* 15.0 ?x2250)) (* 12.0 ?x2250)) ?x226) ?x2072)))
 (let ((?x2503 (- 3.0)))
 (let (($x1311 (<= (+ (+ (+ (* (- 17.0) |v4:7|) ?x1288) (* ?x961 ?x3147)) (* ?x2946 |v7:4|)) ?x2503)))
 (let (($x370 (<= (+ (+ (+ ?x2769 (* ?x2946 ?x2250)) (* 20.0 ?x721)) (* ?x71 |v7:4|)) ?x599)))
 (let ((?x2715 (* 7.0 |v7:4|)))
 (let (($x849 (<= (+ (+ (+ (* ?x2503 ?x3138) (* ?x1415 ?x2250)) (* 7.0 ?x273)) ?x2715) 19.0)))
 (let (($x3410 (<= (+ (+ (+ (* ?x496 |v4:7|) (* 4.0 |v4:7|)) (* (- 10.0) ?x273)) ?x2016) 1.0)))
 (let ((?x2519 (* 8.0 ?x3147)))
 (let ((?x2671 (+ (+ (+ (* 0.0 ?x2397) (* (- 10.0) ?x2397)) (* 16.0 |v6:5|)) ?x2519)))
 (let ((?x2443 (* 15.0 ?x2250)))
 (let ((?x716 (+ (+ (+ (* (- 17.0) ?x3071) (* 20.0 ?x2250)) (* 14.0 |v4:7|)) ?x2443)))
 (let (($x1005 (and (and (and (<= ?x716 10.0) (<= ?x2671 12.0)) (and $x3410 $x849)) (and (and $x370 $x1311) (and $x2560 $x81)))))
 (let (($x2835 (and (and (and $x1005 $x3303) (and (and $x1020 $x3441) $x3419)) (and (and $x2800 $x1476) (and (and $x1479 $x1570) $x1057)))))
 (let (($x1161 (not (= |v0:11_st| (RMk1 val!6571)))))
 (let (($x1272 (not (= |v1:10_st| (RMk1 val!6570)))))
 (let (($x1346 (not (= |v2:9_st| (RMk1 val!6569)))))
 (let (($x2005 (not (= |v3:8_st| (RMk1 val!6568)))))
 (let (($x1367 (not (= |v8:3_st| (RMk1 val!6567)))))
 (let (($x3058 (not (= |v9:2_st| (RMk1 val!6566)))))
 (let (($x1294 (not (= |v10:1_st| (RMk1 val!6565)))))
 (let (($x2915 (not (= |v11:0_st| (RMk1 val!6564)))))
 (and $x2915 $x1294 $x3058 $x1367 $x2005 $x1346 $x1272 $x1161 $x2835)))))))))))))))))))))))))))))))))))))))))))))))))))))))))))))))))))))))))))))))))))))))))))))))))))))))))))))))))))))))))))))))))))))))))))))))))))
 )
 )
 )
 )
 )
 )
 )
 )
 )
 )
 )
 )
(check-sat)
